c Random generated cnf formula, satisfiable: false
p cnf 10 50
-3 2 10 0
-3 9 -6 0
8 2 -9 0
-10 8 4 0
-7 -4 1 0
6 -8 4 0
2 7 -6 0
-6 7 -4 0
2 -1 8 0
10 1 -9 0
-4 -7 3 0
4 7 -8 0
-9 -5 -2 0
9 5 3 0
2 -7 -4 0
-10 -6 -9 0
4 1 3 0
6 -2 -9 0
10 -7 4 0
-10 -6 -7 0
-9 6 1 0
-1 2 3 0
-5 3 -4 0
-10 5 9 0
10 8 7 0
-9 6 -7 0
8 9 -3 0
-9 5 8 0
8 7 1 0
6 -8 -4 0
-3 2 5 0
5 -4 -2 0
-10 -8 -2 0
2 5 -3 0
-6 10 9 0
-9 3 -1 0
-6 10 4 0
3 -2 9 0
4 2 1 0
-6 -2 -7 0
4 7 -10 0
4 3 -9 0
5 7 -8 0
10 8 2 0
9 6 -10 0
8 2 -9 0
9 10 1 0
9 8 -1 0
1 3 -2 0
-6 5 2 0
